
Gurobi 12.0.2 (linux64, C++) logging started Thu Jun 19 08:00:19 2025

Set parameter LogFile to value "log/instances/scenario3/not_correlated_sc3/300/kpfs_4.txt.log"

Gurobi 12.0.2 (linux64, C++) logging started Thu Jun 19 08:01:42 2025

Set parameter LogFile to value "log/instances/scenario3/not_correlated_sc3/300/kpfs_4.txt.log"

Gurobi 12.0.2 (linux64, C++) logging started Thu Jun 19 08:02:53 2025

Set parameter LogFile to value "log/instances/scenario3/not_correlated_sc3/300/kpfs_4.txt.log"

Gurobi 12.0.2 (linux64, C++) logging started Thu Jun 19 08:03:57 2025

Set parameter LogFile to value "log/instances/scenario3/not_correlated_sc3/300/kpfs_4.txt.log"

Gurobi 12.0.2 (linux64, C++) logging started Thu Jun 19 12:37:54 2025

Set parameter WLSAccessID
Set parameter WLSSecret
Set parameter LicenseID to value 2679381
Set parameter LogFile to value "log/instances/scenario3/not_correlated_sc3/300/kpfs_4.txt.log"
Academic license 2679381 - for non-commercial use only - registered to be___@poli.ufrj.br
Set parameter TimeLimit to value 1800
Set parameter Threads to value 1
Gurobi Optimizer version 12.0.2 build v12.0.2rc0 (linux64 - "Ubuntu 24.04.1 LTS")

CPU model: 13th Gen Intel(R) Core(TM) i7-1355U, instruction set [SSE2|AVX|AVX2]
Thread count: 6 physical cores, 12 logical processors, using up to 1 threads

Non-default parameters:
TimeLimit  1800
Threads  1

Academic license 2679381 - for non-commercial use only - registered to be___@poli.ufrj.br
Optimize a model with 1502 rows, 1800 columns and 9180 nonzeros
Model fingerprint: 0x38cc8a8b
Variable types: 0 continuous, 1800 integer (300 binary)
Coefficient statistics:
  Matrix range     [1e+00, 3e+01]
  Objective range  [1e+00, 3e+01]
  Bounds range     [1e+00, 5e+00]
  RHS range        [1e+00, 5e+02]
Found heuristic solution: objective 476.0000000
Presolve removed 1 rows and 279 columns
Presolve time: 0.07s
Presolved: 1501 rows, 1521 columns, 8620 nonzeros
Variable types: 0 continuous, 1521 integer (512 binary)

Root relaxation: objective 1.062118e+03, 442 iterations, 0.11 seconds (0.02 work units)

    Nodes    |    Current Node    |     Objective Bounds      |     Work
 Expl Unexpl |  Obj  Depth IntInf | Incumbent    BestBd   Gap | It/Node Time

     0     0 1062.11813    0  126  476.00000 1062.11813   123%     -    0s
H    0     0                     864.0000000 1062.11813  22.9%     -    0s
H    0     0                     921.0000000 1062.11813  15.3%     -    0s
H    0     0                     941.0000000 1062.11813  12.9%     -    0s
H    0     0                     945.0000000 1062.11813  12.4%     -    0s
H    0     0                     969.0000000 1062.11813  9.61%     -    0s
H    0     0                     973.0000000 1062.11813  9.16%     -    0s
H    0     0                     994.0000000 1062.11813  6.85%     -    0s
     0     0 1055.37919    0  130  994.00000 1055.37919  6.17%     -    0s
     0     0 1055.26471    0  130  994.00000 1055.26471  6.16%     -    0s
     0     0 1053.08094    0  136  994.00000 1053.08094  5.94%     -    0s
     0     0 1052.95005    0  137  994.00000 1052.95005  5.93%     -    0s
     0     0 1052.95005    0  137  994.00000 1052.95005  5.93%     -    1s
     0     0 1052.95005    0  140  994.00000 1052.95005  5.93%     -    1s
     0     0 1051.24034    0  141  994.00000 1051.24034  5.76%     -    1s
     0     0 1050.95744    0  143  994.00000 1050.95744  5.73%     -    1s
     0     0 1050.95072    0  144  994.00000 1050.95072  5.73%     -    1s
     0     0 1050.20780    0  140  994.00000 1050.20780  5.65%     -    1s
     0     0 1050.16417    0  141  994.00000 1050.16417  5.65%     -    1s
     0     0 1050.15769    0  144  994.00000 1050.15769  5.65%     -    1s
     0     0 1049.12373    0  137  994.00000 1049.12373  5.55%     -    1s
     0     0 1049.09524    0  134  994.00000 1049.09524  5.54%     -    1s
     0     0 1049.09073    0  143  994.00000 1049.09073  5.54%     -    1s
     0     0 1049.08844    0  140  994.00000 1049.08844  5.54%     -    1s
     0     0 1049.08571    0  139  994.00000 1049.08571  5.54%     -    1s
H    0     0                    1021.0000000 1049.08571  2.75%     -    1s
H    0     0                    1022.0000000 1049.08571  2.65%     -    1s
     0     2 1048.71406    0  139 1022.00000 1048.71406  2.61%     -    1s
H   51    21                    1030.0000000 1043.99403  1.36%  55.0    2s

Cutting planes:
  MIR: 1
  Zero half: 33

Explored 103 nodes (5530 simplex iterations) in 2.97 seconds (0.61 work units)
Thread count was 1 (of 12 available processors)

Solution count 10: 1030 1022 1021 ... 864

Optimal solution found (tolerance 1.00e-04)
Best objective 1.030000000000e+03, best bound 1.030000000000e+03, gap 0.0000%
